mixintcount/benchmarks/random_v2l/5_5_1412.smt2
(set-logic QF_LIA)
(set-info :ran/ran2.smt2)
(set-info :smt-lib-version 2.0)
(declare-fun x1 () Int)
(declare-fun x2 () Int)
(declare-fun x3 () Int)
(declare-fun x4 () Int)
(declare-fun x5 () Int)
(assert (<= (+ (* 8 x1) (* (- 9) x2) (* 7 x3) (* (- 9) x4) (* 10 x5) ) 1240))
(assert (<= (+ (* 5 x1) (* 10 x2) (* (- 10) x3) (* 0 x4) (* 3 x5) ) (- 500)))
(assert (<= (+ (* 9 x1) (* 6 x2) (* 5 x3) (* (- 3) x4) (* (- 6) x5) ) (- 1393)))
(assert (<= (+ (* (- 6) x1) (* 0 x2) (* (- 3) x3) (* (- 4) x4) (* (- 4) x5) ) (- 893)))
(assert (<= (+ (* (- 8) x1) (* (- 1) x2) (* (- 1) x3) (* 8 x4) (* 8 x5) ) (- 7)))
(assert (<= (+ (* 0 x1) (* 3 x2) (* 3 x3) (* (- 4) x4) (* 5 x5) ) (- 947)))
(assert (<= (+ (* (- 10) x1) (* (- 1) x2) (* (- 1) x3) (* 9 x4) (* 9 x5) ) 1013))
(assert (<= (+ (* 8 x1) (* 6 x2) (* 6 x3) (* 1 x4) (* (- 8) x5) ) (- 815)))
(assert (<= (+ (* (- 6) x1) (* (- 6) x2) (* 0 x3) (* (- 1) x4) (* 1 x5) ) 918))
(assert (<= (+ (* (- 7) x1) (* 1 x2) (* (- 7) x3) (* 1 x4) (* (- 3) x5) ) 1375))
(assert (<= (+ (* 1 x1) (* 0 x2) (* 0 x3) (* 0 x4) (* 0 x5) ) 1412))
(assert (<= (+ (* (- 1) x1) (* 0 x2) (* 0 x3) (* 0 x4) (* 0 x5) ) 1412))
(assert (<= (+ (* 0 x1) (* 1 x2) (* 0 x3) (* 0 x4) (* 0 x5) ) 1412))
(assert (<= (+ (* 0 x1) (* (- 1) x2) (* 0 x3) (* 0 x4) (* 0 x5) ) 1412))
(assert (<= (+ (* 0 x1) (* 0 x2) (* 1 x3) (* 0 x4) (* 0 x5) ) 1412))
(assert (<= (+ (* 0 x1) (* 0 x2) (* (- 1) x3) (* 0 x4) (* 0 x5) ) 1412))
(assert (<= (+ (* 0 x1) (* 0 x2) (* 0 x3) (* 1 x4) (* 0 x5) ) 1412))
(assert (<= (+ (* 0 x1) (* 0 x2) (* 0 x3) (* (- 1) x4) (* 0 x5) ) 1412))
(assert (<= (+ (* 0 x1) (* 0 x2) (* 0 x3) (* 0 x4) (* 1 x5) ) 1412))
(assert (<= (+ (* 0 x1) (* 0 x2) (* 0 x3) (* 0 x4) (* (- 1) x5) ) 1412))
