mixintcount/benchmarks/random_v2l/5_5_1412.in
20 7
#	x1	x2	x3	x4	x5;		0 = Real; 1 = Integer
	1	1	1	1	1
1	8	-9	7	-9	10	1240
1	5	10	-10	0	3	-500
1	9	6	5	-3	-6	-1393
1	-6	0	-3	-4	-4	-893
1	-8	-1	-1	8	8	-7
1	0	3	3	-4	5	-947
1	-10	-1	-1	9	9	1013
1	8	6	6	1	-8	-815
1	-6	-6	0	-1	1	918
1	-7	1	-7	1	-3	1375
1	1	0	0	0	0	1412
1	-1	0	0	0	0	1412
1	0	1	0	0	0	1412
1	0	-1	0	0	0	1412
1	0	0	1	0	0	1412
1	0	0	-1	0	0	1412
1	0	0	0	1	0	1412
1	0	0	0	-1	0	1412
1	0	0	0	0	1	1412
1	0	0	0	0	-1	1412
